c A SAT instance generated from a 3-CNF formula that had 43 clauses and 6 variables
p cnf 6 43
4 -3 2 0
-6 5 4 0
5 -2 4 0
-2 6 -1 0
-2 -1 3 0
-3 -2 5 0
-6 1 -2 0
-1 -4 -5 0
-6 -1 3 0
6 3 -2 0
-4 -3 -2 0
-5 6 1 0
-5 -6 -2 0
2 -6 -3 0
-1 -2 -5 0
5 -4 6 0
2 6 -4 0
-6 -2 -1 0
2 1 -3 0
6 -1 4 0
-1 2 4 0
2 -3 -6 0
1 2 -6 0
1 5 4 0
-4 -5 1 0
5 6 -1 0
3 -5 4 0
-6 2 -1 0
-2 -1 3 0
-5 -6 1 0
5 -1 4 0
-4 3 5 0
6 -5 2 0
5 6 1 0
-6 3 -1 0
-5 -6 -1 0
2 6 4 0
-5 -4 3 0
1 5 6 0
-6 -1 2 0
4 5 6 0
2 3 1 0
2 -5 1 0
